6090
6078
6092
6040
5986
6102
6091
6047
6138
6178
6031
6082
6079
6055
6147
6118
6193
6069
6092
6110
6044
6036
6193
6020
6085
6080
6158
6059
6071
6147
6101
6020
6097
6053
6118
6132
6113
6040
5990
6126
6125
6082
6203
6142
6083
6157
6158
6059
6179
6112
6073
6114
6123
6104
6104
6111
6119
6104
6159
6212
6081
6138
6171
6116
6099
6120
6110
6157
6193
6052
6105
6146
6066
6026
6083
6115
6112
6120
6133
6094
6140
6080
6133
6139
6179
6033
6096
6137
6044
6167
6123
6115
6068
6089
6113
6098
6122
6197
6086
6060
